 &INPUTPP
 prefix  = '1L'
 outdir  = 'tmp'
/
